Welcome to the CBC MILP Solver 
Version: Trunk
Build Date: Apr 16 2020 

Starting solution of the Linear programming relaxation problem using Primal Simplex

Using Python-MIP package version 1.8.1
Machines:  3 Jobs:  3
Order: 
Job  0 : machine 1 ( 7 ) machine 2 ( 7 ) machine 0 ( 1 ) 
Job  1 : machine 1 ( 4 ) machine 0 ( 3 ) machine 2 ( 7 ) 
Job  2 : machine 1 ( 7 ) machine 2 ( 6 ) machine 0 ( 2 ) 
K:  33
Job  0 , e: machine  0 ( 14 ) machine  1 ( 0 ) machine  2 ( 7 ) 
Job  1 , e: machine  0 ( 4 ) machine  1 ( 0 ) machine  2 ( 7 ) 
Job  2 , e: machine  0 ( 13 ) machine  1 ( 0 ) machine  2 ( 7 ) 
Job  0 , f: machine  0 ( 0 ) machine  1 ( 8 ) machine  2 ( 1 ) 
Job  1 , f: machine  0 ( 7 ) machine  1 ( 10 ) machine  2 ( 0 ) 
Job  2 , f: machine  0 ( 0 ) machine  1 ( 8 ) machine  2 ( 2 ) 
EST and LST:
Job: 0 Machine: 0 EST: 14 LST: 32
Job: 0 Machine: 1 EST: 0 LST: 18
Job: 0 Machine: 2 EST: 7 LST: 25
Job: 1 Machine: 0 EST: 4 LST: 23
Job: 1 Machine: 1 EST: 0 LST: 19
Job: 1 Machine: 2 EST: 7 LST: 26
Job: 2 Machine: 0 EST: 13 LST: 31
Job: 2 Machine: 1 EST: 0 LST: 18
Job: 2 Machine: 2 EST: 7 LST: 25
Order:
Job: 0 Machine: 0 = 2 
Job: 0 Machine: 1 = 0 
Job: 0 Machine: 2 = 1 
Job: 1 Machine: 0 = 1 
Job: 1 Machine: 1 = 0 
Job: 1 Machine: 2 = 2 
Job: 2 Machine: 0 = 2 
Job: 2 Machine: 1 = 0 
Job: 2 Machine: 2 = 1 
Distances:
Job 0, Machine 1 -> Machine 2: distance 7
Job 0, Machine 1 -> Machine 0: distance 14
Job 0, Machine 2 -> Machine 0: distance 7
Job 1, Machine 1 -> Machine 0: distance 4
Job 1, Machine 1 -> Machine 2: distance 7
Job 1, Machine 0 -> Machine 2: distance 3
Job 2, Machine 1 -> Machine 2: distance 7
Job 2, Machine 1 -> Machine 0: distance 13
Job 2, Machine 2 -> Machine 0: distance 6
McCormic linearization
[(0, 1), (0, 2), (2, 1), (2, 0), (2, 2), (1, 0), (1, 1)]
obj:  0.0
solutions:  1
+ 0.14285714285714285x(0,1) + 0.14285714285714285x(2,1) 
C:  18.5
x(0,0) = 17.50	 x(0,1) = 3.50	 x(0,2) = 10.50	 
x(1,0) = 8.50	 x(1,1) = 4.50	 x(1,2) = 11.50	 
x(2,0) = 16.50	 x(2,1) = 3.50	 x(2,2) = 10.50	 
y(0,1,0) = 0.00	 y(1,0,0) = 1.00	 
y(0,2,0) = 0.90	 y(2,0,0) = 0.10	 
y(1,2,0) = 0.59	 y(2,1,0) = 0.41	 
y(0,1,1) = 0.22	 y(1,0,1) = 0.78	 
y(0,2,1) = 0.50	 y(2,0,1) = 0.50	 
y(1,2,1) = 0.36	 y(2,1,1) = 0.64	 
y(0,1,2) = 0.50	 y(1,0,2) = 0.50	 
y(0,2,2) = 0.42	 y(2,0,2) = 0.58	 
y(1,2,2) = 0.50	 y(2,1,2) = 0.50	 
obj:  0.6380952380952382
solutions:  1
+ 0.06666666666666668x(0,1) + 0.03809523809523809x(1,1) + 0.06666666666666667x(2,1) 
[(0, 1), (1, 1), (2, 1)]
cliques:  1 mip: 20
C:  20.983660130718956
x(0,0) = 19.87	 x(0,1) = 5.87	 x(0,2) = 12.87	 
x(1,0) = 9.51	 x(1,1) = 5.51	 x(1,2) = 12.51	 
x(2,0) = 18.98	 x(2,1) = 5.98	 x(2,2) = 12.98	 
y(0,1,0) = 0.00	 y(1,0,0) = 1.00	 
y(0,2,0) = 0.06	 y(2,0,0) = 0.94	 
y(1,2,0) = 0.62	 y(2,1,0) = 0.38	 
y(0,1,1) = 0.71	 y(1,0,1) = 0.29	 
y(0,2,1) = 0.31	 y(2,0,1) = 0.69	 
y(1,2,1) = 0.30	 y(2,1,1) = 0.70	 
y(0,1,2) = 0.31	 y(1,0,2) = 0.69	 
y(0,2,2) = 0.25	 y(2,0,2) = 0.75	 
y(1,2,2) = 0.71	 y(2,1,2) = 0.29	 
obj:  1.0000000000000002
erro
[(0, 1), (1, 2), (2, 1), (2, 0), (2, 2), (1, 0), (1, 1)]
cliques:  0 mip: 52
C:  22.463941299790346
x(0,0) = 21.46	 x(0,1) = 7.46	 x(0,2) = 14.46	 
x(1,0) = 7.61	 x(1,1) = 3.56	 x(1,2) = 10.61	 
x(2,0) = 18.50	 x(2,1) = 5.50	 x(2,2) = 12.50	 
y(0,1,0) = 0.00	 y(1,0,0) = 1.00	 
y(0,2,0) = 0.00	 y(2,0,0) = 1.00	 
y(1,2,0) = 0.67	 y(2,1,0) = 0.33	 
y(0,1,1) = 0.02	 y(1,0,1) = 0.98	 
y(0,2,1) = 0.64	 y(2,0,1) = 0.36	 
y(1,2,1) = 0.74	 y(2,1,1) = 0.26	 
y(0,1,2) = 0.12	 y(1,0,2) = 0.88	 
y(0,2,2) = 0.64	 y(2,0,2) = 0.36	 
y(1,2,2) = 0.78	 y(2,1,2) = 0.22	 
obj:  1.0
erro
[(0, 1), (1, 1), (2, 1)]
cliques:  0 mip: 47
C:  23.39379111875545
x(0,0) = 22.39	 x(0,1) = 4.20	 x(0,2) = 11.20	 
x(1,0) = 13.39	 x(1,1) = 8.05	 x(1,2) = 16.39	 
x(2,0) = 19.20	 x(2,1) = 6.20	 x(2,2) = 13.20	 
y(0,1,0) = 0.00	 y(1,0,0) = 1.00	 
y(0,2,0) = 0.00	 y(2,0,0) = 1.00	 
y(1,2,0) = 1.00	 y(2,1,0) = 0.00	 
y(0,1,1) = 0.73	 y(1,0,1) = 0.27	 
y(0,2,1) = 0.40	 y(2,0,1) = 0.60	 
y(1,2,1) = 0.75	 y(2,1,1) = 0.25	 
y(0,1,2) = 0.47	 y(1,0,2) = 0.53	 
y(0,2,2) = 0.60	 y(2,0,2) = 0.40	 
y(1,2,2) = 0.61	 y(2,1,2) = 0.39	 
obj:  0.9976558934429496
solutions:  1
+ 0.025641025641025626x(1,2) + 0.02197802197802198x(2,2) + 0.02564102564102565x(0,2) 
[(1, 2), (0, 1), (2, 1), (1, 1), (2, 2), (1, 0), (0, 2)]
cliques:  1 mip: 48
C:  24.27224769642319
x(0,0) = 23.27	 x(0,1) = 8.42	 x(0,2) = 15.42	 
x(1,0) = 14.27	 x(1,1) = 3.70	 x(1,2) = 17.27	 
x(2,0) = 17.47	 x(2,1) = 4.47	 x(2,2) = 11.47	 
y(0,1,0) = 0.00	 y(1,0,0) = 1.00	 
y(0,2,0) = 0.00	 y(2,0,0) = 1.00	 
y(1,2,0) = 0.99	 y(2,1,0) = 0.01	 
y(0,1,1) = 0.21	 y(1,0,1) = 0.79	 
y(0,2,1) = 0.12	 y(2,0,1) = 0.88	 
y(1,2,1) = 0.44	 y(2,1,1) = 0.56	 
y(0,1,2) = 0.62	 y(1,0,2) = 0.38	 
y(0,2,2) = 0.12	 y(2,0,2) = 0.88	 
y(1,2,2) = 0.10	 y(2,1,2) = 0.90	 
obj:  0.9999999999999992
erro
[(0, 1), (1, 1), (2, 1)]
cliques:  0 mip: 52
C:  25.0
x(0,0) = 24.00	 x(0,1) = 5.35	 x(0,2) = 12.35	 
x(1,0) = 15.00	 x(1,1) = 8.52	 x(1,2) = 18.00	 
x(2,0) = 19.06	 x(2,1) = 5.42	 x(2,2) = 13.06	 
y(0,1,0) = 0.00	 y(1,0,0) = 1.00	 
y(0,2,0) = 0.00	 y(2,0,0) = 1.00	 
y(1,2,0) = 0.96	 y(2,1,0) = 0.04	 
y(0,1,1) = 0.85	 y(1,0,1) = 0.15	 
y(0,2,1) = 0.28	 y(2,0,1) = 0.72	 
y(1,2,1) = 0.29	 y(2,1,1) = 0.71	 
y(0,1,2) = 0.64	 y(1,0,2) = 0.36	 
y(0,2,2) = 0.28	 y(2,0,2) = 0.72	 
y(1,2,2) = 0.16	 y(2,1,2) = 0.84	 
obj:  1.0425102238930175
erro
[(1, 2), (0, 1), (2, 1), (1, 1), (2, 2), (1, 0), (0, 2)]
cliques:  0 mip: 37
C:  25.0
x(0,0) = 24.00	 x(0,1) = 6.57	 x(0,2) = 16.91	 
x(1,0) = 15.00	 x(1,1) = 8.44	 x(1,2) = 18.00	 
x(2,0) = 18.00	 x(2,1) = 4.22	 x(2,2) = 11.22	 
y(0,1,0) = 0.00	 y(1,0,0) = 1.00	 
y(0,2,0) = 0.00	 y(2,0,0) = 1.00	 
y(1,2,0) = 1.00	 y(2,1,0) = 0.00	 
y(0,1,1) = 0.57	 y(1,0,1) = 0.43	 
y(0,2,1) = 0.39	 y(2,0,1) = 0.61	 
y(1,2,1) = 0.16	 y(2,1,1) = 0.84	 
y(0,1,2) = 0.62	 y(1,0,2) = 0.38	 
y(0,2,2) = 0.01	 y(2,0,2) = 0.99	 
y(1,2,2) = 0.06	 y(2,1,2) = 0.94	 
obj:  1.0408739048795865
erro
[(0, 1), (1, 1), (2, 1)]
cliques:  0 mip: 29
C:  25.0
x(0,0) = 24.00	 x(0,1) = 6.30	 x(0,2) = 16.69	 
x(1,0) = 14.21	 x(1,1) = 8.59	 x(1,2) = 17.21	 
x(2,0) = 17.76	 x(2,1) = 4.33	 x(2,2) = 11.76	 
y(0,1,0) = 0.00	 y(1,0,0) = 1.00	 
y(0,2,0) = 0.00	 y(2,0,0) = 1.00	 
y(1,2,0) = 0.98	 y(2,1,0) = 0.02	 
y(0,1,1) = 0.52	 y(1,0,1) = 0.48	 
y(0,2,1) = 0.42	 y(2,0,1) = 0.58	 
y(1,2,1) = 0.16	 y(2,1,1) = 0.84	 
y(0,1,2) = 0.50	 y(1,0,2) = 0.50	 
y(0,2,2) = 0.04	 y(2,0,2) = 0.96	 
y(1,2,2) = 0.18	 y(2,1,2) = 0.82	 
obj:  1.0360656269450828
erro
[(1, 2), (0, 1), (2, 1), (1, 1), (2, 2), (1, 0), (0, 2)]
cliques:  0 mip: 42
C:  25.0
x(0,0) = 24.00	 x(0,1) = 8.20	 x(0,2) = 17.00	 
x(1,0) = 11.02	 x(1,1) = 7.02	 x(1,2) = 14.02	 
x(2,0) = 22.00	 x(2,1) = 3.78	 x(2,2) = 11.00	 
y(0,1,0) = 0.00	 y(1,0,0) = 1.00	 
y(0,2,0) = 0.00	 y(2,0,0) = 1.00	 
y(1,2,0) = 0.76	 y(2,1,0) = 0.24	 
y(0,1,1) = 0.31	 y(1,0,1) = 0.69	 
y(0,2,1) = 0.20	 y(2,0,1) = 0.80	 
y(1,2,1) = 0.15	 y(2,1,1) = 0.85	 
y(0,1,2) = 0.30	 y(1,0,2) = 0.70	 
y(0,2,2) = 0.00	 y(2,0,2) = 1.00	 
y(1,2,2) = 0.46	 y(2,1,2) = 0.54	 
obj:  1.0370905572731541
erro
[(1, 2), (0, 1), (0, 2), (2, 1), (2, 2), (1, 0), (1, 1)]
cliques:  0 mip: 34
C:  24.999999999999996
x(0,0) = 24.00	 x(0,1) = 7.85	 x(0,2) = 16.87	 
x(1,0) = 13.03	 x(1,1) = 6.90	 x(1,2) = 16.03	 
x(2,0) = 20.22	 x(2,1) = 4.27	 x(2,2) = 11.33	 
y(0,1,0) = 0.00	 y(1,0,0) = 1.00	 
y(0,2,0) = 0.00	 y(2,0,0) = 1.00	 
y(1,2,0) = 0.32	 y(2,1,0) = 0.68	 
y(0,1,1) = 0.25	 y(1,0,1) = 0.75	 
y(0,2,1) = 0.24	 y(2,0,1) = 0.76	 
y(1,2,1) = 0.22	 y(2,1,1) = 0.78	 
y(0,1,2) = 0.49	 y(1,0,2) = 0.51	 
y(0,2,2) = 0.02	 y(2,0,2) = 0.98	 
y(1,2,2) = 0.22	 y(2,1,2) = 0.78	 
obj:  1.0708298575038573
erro
[(1, 2), (0, 1), (2, 1), (1, 1), (2, 2), (1, 0), (0, 2)]
cliques:  0 mip: 45
C:  25.0
x(0,0) = 24.00	 x(0,1) = 6.56	 x(0,2) = 16.28	 
x(1,0) = 13.12	 x(1,1) = 7.74	 x(1,2) = 16.12	 
x(2,0) = 17.02	 x(2,1) = 4.02	 x(2,2) = 11.02	 
y(0,1,0) = 0.00	 y(1,0,0) = 1.00	 
y(0,2,0) = 0.00	 y(2,0,0) = 1.00	 
y(1,2,0) = 0.99	 y(2,1,0) = 0.01	 
y(0,1,1) = 0.52	 y(1,0,1) = 0.48	 
y(0,2,1) = 0.41	 y(2,0,1) = 0.59	 
y(1,2,1) = 0.28	 y(2,1,1) = 0.72	 
y(0,1,2) = 0.43	 y(1,0,2) = 0.57	 
y(0,2,2) = 0.03	 y(2,0,2) = 0.97	 
y(1,2,2) = 0.28	 y(2,1,2) = 0.72	 
obj:  0.9999999999999999
erro
[(0, 1), (1, 1), (2, 1)]
cliques:  0 mip: 44
C:  25.0
x(0,0) = 24.00	 x(0,1) = 5.30	 x(0,2) = 14.06	 
x(1,0) = 14.47	 x(1,1) = 9.10	 x(1,2) = 17.47	 
x(2,0) = 20.30	 x(2,1) = 4.95	 x(2,2) = 11.95	 
y(0,1,0) = 0.00	 y(1,0,0) = 1.00	 
y(0,2,0) = 0.00	 y(2,0,0) = 1.00	 
y(1,2,0) = 0.89	 y(2,1,0) = 0.11	 
y(0,1,1) = 0.62	 y(1,0,1) = 0.38	 
y(0,2,1) = 0.62	 y(2,0,1) = 0.38	 
y(1,2,1) = 0.21	 y(2,1,1) = 0.79	 
y(0,1,2) = 0.66	 y(1,0,2) = 0.34	 
y(0,2,2) = 0.42	 y(2,0,2) = 0.58	 
y(1,2,2) = 0.13	 y(2,1,2) = 0.87	 
obj:  1.0300329417056482
erro
[(0, 1), (1, 2), (0, 2), (2, 1), (2, 2), (1, 1)]
cliques:  0 mip: 45
C:  24.999999999999996
x(0,0) = 24.00	 x(0,1) = 7.46	 x(0,2) = 15.33	 
x(1,0) = 14.14	 x(1,1) = 7.15	 x(1,2) = 17.14	 
x(2,0) = 17.90	 x(2,1) = 3.72	 x(2,2) = 11.90	 
y(0,1,0) = 0.00	 y(1,0,0) = 1.00	 
y(0,2,0) = 0.00	 y(2,0,0) = 1.00	 
y(1,2,0) = 0.97	 y(2,1,0) = 0.03	 
y(0,1,1) = 0.23	 y(1,0,1) = 0.77	 
y(0,2,1) = 0.34	 y(2,0,1) = 0.66	 
y(1,2,1) = 0.23	 y(2,1,1) = 0.77	 
y(0,1,2) = 0.50	 y(1,0,2) = 0.50	 
y(0,2,2) = 0.24	 y(2,0,2) = 0.76	 
y(1,2,2) = 0.26	 y(2,1,2) = 0.74	 
obj:  1.0176076301655446
erro
[(1, 2), (0, 1), (2, 1), (1, 1), (2, 2), (1, 0), (0, 2)]
cliques:  0 mip: 45
C:  24.999999999999996
x(0,0) = 24.00	 x(0,1) = 6.53	 x(0,2) = 13.53	 
x(1,0) = 15.00	 x(1,1) = 7.86	 x(1,2) = 18.00	 
x(2,0) = 19.01	 x(2,1) = 4.61	 x(2,2) = 13.01	 
y(0,1,0) = 0.00	 y(1,0,0) = 1.00	 
y(0,2,0) = 0.00	 y(2,0,0) = 1.00	 
y(1,2,0) = 0.98	 y(2,1,0) = 0.02	 
y(0,1,1) = 0.37	 y(1,0,1) = 0.63	 
y(0,2,1) = 0.50	 y(2,0,1) = 0.50	 
y(1,2,1) = 0.23	 y(2,1,1) = 0.77	 
y(0,1,2) = 0.69	 y(1,0,2) = 0.31	 
y(0,2,2) = 0.50	 y(2,0,2) = 0.50	 
y(1,2,2) = 0.20	 y(2,1,2) = 0.80	 
obj:  1.042037666206145
erro
[(0, 1), (1, 1), (2, 1)]
cliques:  0 mip: 39
C:  24.999999999999996
x(0,0) = 24.00	 x(0,1) = 3.21	 x(0,2) = 13.88	 
x(1,0) = 13.48	 x(1,1) = 9.48	 x(1,2) = 16.48	 
x(2,0) = 19.93	 x(2,1) = 6.67	 x(2,2) = 13.93	 
y(0,1,0) = 0.00	 y(1,0,0) = 1.00	 
y(0,2,0) = 0.00	 y(2,0,0) = 1.00	 
y(1,2,0) = 0.91	 y(2,1,0) = 0.09	 
y(0,1,1) = 0.70	 y(1,0,1) = 0.30	 
y(0,2,1) = 0.86	 y(2,0,1) = 0.14	 
y(1,2,1) = 0.43	 y(2,1,1) = 0.57	 
y(0,1,2) = 0.63	 y(1,0,2) = 0.37	 
y(0,2,2) = 0.45	 y(2,0,2) = 0.55	 
y(1,2,2) = 0.23	 y(2,1,2) = 0.77	 
obj:  1.019801522254201
erro
[(0, 1), (1, 2), (0, 2), (2, 1), (2, 2), (1, 1)]
cliques:  0 mip: 44
C:  24.999999999999996
x(0,0) = 24.00	 x(0,1) = 6.20	 x(0,2) = 16.27	 
x(1,0) = 13.48	 x(1,1) = 7.00	 x(1,2) = 16.48	 
x(2,0) = 17.87	 x(2,1) = 4.80	 x(2,2) = 11.87	 
y(0,1,0) = 0.00	 y(1,0,0) = 1.00	 
y(0,2,0) = 0.00	 y(2,0,0) = 1.00	 
y(1,2,0) = 1.00	 y(2,1,0) = -0.00	 
y(0,1,1) = 0.26	 y(1,0,1) = 0.74	 
y(0,2,1) = 0.45	 y(2,0,1) = 0.55	 
y(1,2,1) = 0.45	 y(2,1,1) = 0.55	 
y(0,1,2) = 0.45	 y(1,0,2) = 0.55	 
y(0,2,2) = 0.07	 y(2,0,2) = 0.93	 
y(1,2,2) = 0.22	 y(2,1,2) = 0.78	 
obj:  1.0
erro
[(0, 1), (1, 1), (2, 1)]
cliques:  0 mip: 41
C:  24.999999999999996
x(0,0) = 24.00	 x(0,1) = 6.37	 x(0,2) = 16.34	 
x(1,0) = 11.62	 x(1,1) = 6.86	 x(1,2) = 14.62	 
x(2,0) = 17.71	 x(2,1) = 4.71	 x(2,2) = 11.71	 
y(0,1,0) = 0.00	 y(1,0,0) = 1.00	 
y(0,2,0) = 0.00	 y(2,0,0) = 1.00	 
y(1,2,0) = 0.86	 y(2,1,0) = 0.14	 
y(0,1,1) = 0.63	 y(1,0,1) = 0.37	 
y(0,2,1) = 0.41	 y(2,0,1) = 0.59	 
y(1,2,1) = 0.45	 y(2,1,1) = 0.55	 
y(0,1,2) = 0.37	 y(1,0,2) = 0.63	 
y(0,2,2) = 0.09	 y(2,0,2) = 0.91	 
y(1,2,2) = 0.45	 y(2,1,2) = 0.55	 
obj:  0.9999999999999998
erro
[(1, 2), (0, 1), (0, 2), (2, 1), (2, 2), (1, 0), (1, 1)]
cliques:  0 mip: 43
C:  24.999999999999996
x(0,0) = 24.00	 x(0,1) = 5.47	 x(0,2) = 15.43	 
x(1,0) = 11.97	 x(1,1) = 7.60	 x(1,2) = 14.97	 
x(2,0) = 18.43	 x(2,1) = 5.33	 x(2,2) = 12.39	 
y(0,1,0) = 0.00	 y(1,0,0) = 1.00	 
y(0,2,0) = 0.00	 y(2,0,0) = 1.00	 
y(1,2,0) = 0.39	 y(2,1,0) = 0.61	 
y(0,1,1) = 0.70	 y(1,0,1) = 0.30	 
y(0,2,1) = 0.47	 y(2,0,1) = 0.53	 
y(1,2,1) = 0.44	 y(2,1,1) = 0.56	 
y(0,1,2) = 0.42	 y(1,0,2) = 0.58	 
y(0,2,2) = 0.19	 y(2,0,2) = 0.81	 
y(1,2,2) = 0.42	 y(2,1,2) = 0.58	 
obj:  1.00907355443991
erro
[(0, 1), (1, 1), (2, 1)]
cliques:  0 mip: 47
C:  24.999999999999996
x(0,0) = 24.00	 x(0,1) = 5.32	 x(0,2) = 15.88	 
x(1,0) = 12.76	 x(1,1) = 7.73	 x(1,2) = 15.76	 
x(2,0) = 18.27	 x(2,1) = 5.27	 x(2,2) = 12.27	 
y(0,1,0) = 0.00	 y(1,0,0) = 1.00	 
y(0,2,0) = 0.00	 y(2,0,0) = 1.00	 
y(1,2,0) = 0.32	 y(2,1,0) = 0.68	 
y(0,1,1) = 0.73	 y(1,0,1) = 0.27	 
y(0,2,1) = 0.52	 y(2,0,1) = 0.48	 
y(1,2,1) = 0.45	 y(2,1,1) = 0.55	 
y(0,1,2) = 0.50	 y(1,0,2) = 0.50	 
y(0,2,2) = 0.14	 y(2,0,2) = 0.86	 
y(1,2,2) = 0.34	 y(2,1,2) = 0.66	 
obj:  0.9999999999999998
erro
[(1, 2), (0, 1), (2, 1), (1, 1), (2, 2), (1, 0), (0, 2)]
cliques:  0 mip: 45
C:  24.999999999999996
x(0,0) = 24.00	 x(0,1) = 6.17	 x(0,2) = 15.73	 
x(1,0) = 13.71	 x(1,1) = 7.78	 x(1,2) = 16.71	 
x(2,0) = 22.00	 x(2,1) = 4.38	 x(2,2) = 12.11	 
y(0,1,0) = 0.00	 y(1,0,0) = 1.00	 
y(0,2,0) = 0.00	 y(2,0,0) = 1.00	 
y(1,2,0) = 0.35	 y(2,1,0) = 0.65	 
y(0,1,1) = 0.56	 y(1,0,1) = 0.44	 
y(0,2,1) = 0.27	 y(2,0,1) = 0.73	 
y(1,2,1) = 0.31	 y(2,1,1) = 0.69	 
y(0,1,2) = 0.53	 y(1,0,2) = 0.47	 
y(0,2,2) = 0.18	 y(2,0,2) = 0.82	 
y(1,2,2) = 0.30	 y(2,1,2) = 0.70	 
obj:  1.0
erro
[(1, 2), (0, 1), (2, 1), (1, 1), (2, 2), (1, 0), (0, 2)]
cliques:  0 mip: 42
C:  24.999999999999996
x(0,0) = 24.00	 x(0,1) = 6.43	 x(0,2) = 14.34	 
x(1,0) = 12.98	 x(1,1) = 5.70	 x(1,2) = 15.98	 
x(2,0) = 22.00	 x(2,1) = 5.83	 x(2,2) = 13.15	 
y(0,1,0) = 0.00	 y(1,0,0) = 1.00	 
y(0,2,0) = 0.00	 y(2,0,0) = 1.00	 
y(1,2,0) = 0.95	 y(2,1,0) = 0.05	 
y(0,1,1) = 0.43	 y(1,0,1) = 0.57	 
y(0,2,1) = 0.26	 y(2,0,1) = 0.74	 
y(1,2,1) = 0.61	 y(2,1,1) = 0.39	 
y(0,1,2) = 0.52	 y(1,0,2) = 0.48	 
y(0,2,2) = 0.38	 y(2,0,2) = 0.62	 
y(1,2,2) = 0.35	 y(2,1,2) = 0.65	 
obj:  1.0346817029287456
erro
[(1, 2), (0, 1), (0, 2), (2, 1), (2, 2), (1, 0), (1, 1)]
cliques:  0 mip: 41
C:  24.999999999999996
x(0,0) = 24.00	 x(0,1) = 3.34	 x(0,2) = 12.91	 
x(1,0) = 13.57	 x(1,1) = 8.56	 x(1,2) = 16.57	 
x(2,0) = 22.00	 x(2,1) = 7.36	 x(2,2) = 14.36	 
y(0,1,0) = 0.00	 y(1,0,0) = 1.00	 
y(0,2,0) = 0.00	 y(2,0,0) = 1.00	 
y(1,2,0) = 0.95	 y(2,1,0) = 0.05	 
y(0,1,1) = 0.93	 y(1,0,1) = 0.07	 
y(0,2,1) = 0.82	 y(2,0,1) = 0.18	 
y(1,2,1) = 0.55	 y(2,1,1) = 0.45	 
y(0,1,2) = 0.72	 y(1,0,2) = 0.28	 
y(0,2,2) = 0.58	 y(2,0,2) = 0.42	 
y(1,2,2) = 0.25	 y(2,1,2) = 0.75	 
obj:  1.0396365785434596
erro
[(0, 1), (1, 1), (2, 1)]
cliques:  0 mip: 42
C:  24.999999999999996
x(0,0) = 24.00	 x(0,1) = 2.34	 x(0,2) = 10.94	 
x(1,0) = 13.37	 x(1,1) = 9.37	 x(1,2) = 16.37	 
x(2,0) = 22.00	 x(2,1) = 7.70	 x(2,2) = 14.70	 
y(0,1,0) = 0.00	 y(1,0,0) = 1.00	 
y(0,2,0) = 0.00	 y(2,0,0) = 1.00	 
y(1,2,0) = 0.90	 y(2,1,0) = 0.10	 
y(0,1,1) = 0.92	 y(1,0,1) = 0.08	 
y(0,2,1) = 0.72	 y(2,0,1) = 0.28	 
y(1,2,1) = 0.56	 y(2,1,1) = 0.44	 
y(0,1,2) = 0.69	 y(1,0,2) = 0.31	 
y(0,2,2) = 0.60	 y(2,0,2) = 0.40	 
y(1,2,2) = 0.28	 y(2,1,2) = 0.72	 
obj:  1.0261861187041372
erro
[(0, 1), (1, 1), (2, 1)]
cliques:  0 mip: 40
C:  24.999999999999996
x(0,0) = 24.00	 x(0,1) = 3.35	 x(0,2) = 12.12	 
x(1,0) = 14.41	 x(1,1) = 8.06	 x(1,2) = 17.41	 
x(2,0) = 22.00	 x(2,1) = 7.82	 x(2,2) = 14.82	 
y(0,1,0) = 0.00	 y(1,0,0) = 1.00	 
y(0,2,0) = 0.00	 y(2,0,0) = 1.00	 
y(1,2,0) = 0.95	 y(2,1,0) = 0.05	 
y(0,1,1) = 0.79	 y(1,0,1) = 0.21	 
y(0,2,1) = 0.67	 y(2,0,1) = 0.33	 
y(1,2,1) = 0.63	 y(2,1,1) = 0.37	 
y(0,1,2) = 0.79	 y(1,0,2) = 0.21	 
y(0,2,2) = 0.62	 y(2,0,2) = 0.38	 
y(1,2,2) = 0.14	 y(2,1,2) = 0.86	 
obj:  1.0512985804870891
erro
[(0, 1), (1, 2), (0, 2), (2, 1), (2, 2), (1, 1)]
cliques:  0 mip: 41
C:  24.999999999999996
x(0,0) = 24.00	 x(0,1) = 3.26	 x(0,2) = 11.08	 
x(1,0) = 12.29	 x(1,1) = 8.29	 x(1,2) = 15.29	 
x(2,0) = 21.66	 x(2,1) = 7.73	 x(2,2) = 14.73	 
y(0,1,0) = 0.00	 y(1,0,0) = 1.00	 
y(0,2,0) = 0.00	 y(2,0,0) = 1.00	 
y(1,2,0) = 0.71	 y(2,1,0) = 0.29	 
y(0,1,1) = 0.74	 y(1,0,1) = 0.26	 
y(0,2,1) = 0.53	 y(2,0,1) = 0.47	 
y(1,2,1) = 0.61	 y(2,1,1) = 0.39	 
y(0,1,2) = 0.63	 y(1,0,2) = 0.37	 
y(0,2,2) = 0.60	 y(2,0,2) = 0.40	 
y(1,2,2) = 0.40	 y(2,1,2) = 0.60	 
obj:  1.0487610340584574
erro
[(0, 1), (1, 1), (2, 1)]
cliques:  0 mip: 0
iterações: 25 cortes cliques encontrados: 3 mip: 1023 objective:  24.999999999999996
Coin0506I Presolve 65 (-61) rows, 39 (-25) columns and 202 (-86) elements
Clp1000I sum of infeasibilities 3.24924e-06 - average 4.99884e-08, 0 fixed columns
Coin0506I Presolve 65 (0) rows, 39 (0) columns and 202 (0) elements
Clp0029I End of values pass after 39 iterations
Clp0000I Optimal - objective value 15
Clp0000I Optimal - objective value 15
Coin0511I After Postsolve, objective 15, infeasibilities - dual 0 (0), primal 0 (0)
Clp0000I Optimal - objective value 15
Clp0000I Optimal - objective value 15
Clp0000I Optimal - objective value 15
Coin0511I After Postsolve, objective 15, infeasibilities - dual 0 (0), primal 0 (0)
Clp0032I Optimal objective 15 - 0 iterations time 0.002, Presolve 0.00, Idiot 0.00
Coin3009W Conflict graph built in 0.000 seconds, density: 0.147%
